DIMACS_lns/graph-1000-677.col
p edge 1000 1849
e 1 905
e 1 956
e 1 760
e 1 874
e 1 53
e 1 651
e 2 434
e 2 337
e 2 505
e 3 217
e 3 634
e 3 758
e 3 572
e 3 6
e 3 436
e 4 241
e 4 663
e 4 803
e 6 147
e 6 100
e 6 632
e 6 293
e 6 436
e 6 806
e 7 894
e 7 664
e 7 549
e 7 665
e 9 808
e 9 171
e 9 140
e 10 725
e 10 852
e 10 808
e 10 765
e 11 752
e 11 954
e 11 841
e 12 952
e 12 483
e 12 928
e 12 655
e 13 160
e 13 955
e 13 166
e 13 431
e 13 975
e 13 996
e 13 811
e 14 308
e 14 412
e 14 801
e 14 495
e 14 991
e 14 711
e 16 922
e 16 487
e 16 792
e 16 391
e 16 221
e 17 49
e 17 358
e 17 79
e 17 738
e 17 934
e 17 180
e 17 267
e 19 35
e 19 36
e 19 236
e 19 81
e 20 436
e 20 277
e 20 471
e 20 411
e 20 109
e 20 374
e 20 712
e 20 872
e 21 756
e 21 909
e 21 453
e 22 101
e 22 914
e 22 271
e 22 222
e 22 227
e 22 928
e 23 437
e 23 894
e 23 252
e 23 843
e 26 994
e 26 989
e 26 818
e 26 352
e 26 171
e 26 333
e 26 812
e 26 785
e 27 578
e 27 570
e 27 520
e 28 483
e 28 717
e 28 902
e 28 946
e 28 288
e 29 657
e 29 686
e 29 835
e 29 196
e 30 933
e 30 635
e 30 900
e 33 591
e 33 426
e 33 95
e 33 422
e 33 499
e 33 798
e 33 646
e 33 450
e 33 427
e 33 615
e 34 361
e 34 920
e 34 781
e 35 196
e 35 968
e 36 572
e 36 864
e 36 877
e 37 753
e 37 516
e 37 703
e 37 293
e 38 694
e 38 428
e 38 914
e 41 566
e 41 79
e 41 520
e 45 914
e 45 868
e 45 322
e 45 107
e 45 185
e 46 357
e 46 264
e 46 433
e 46 846
e 47 814
e 47 755
e 47 871
e 47 220
e 48 894
e 48 135
e 48 63
e 48 910
e 49 818
e 49 476
e 49 110
e 49 744
e 50 676
e 50 147
e 50 248
e 50 549
e 52 505
e 52 907
e 52 924
e 53 133
e 53 402
e 53 321
e 53 812
e 53 711
e 53 667
e 54 559
e 54 528
e 54 729
e 54 419
e 54 124
e 56 842
e 56 251
e 56 386
e 56 459
e 56 175
e 56 380
e 56 737
e 57 725
e 57 975
e 57 487
e 58 435
e 58 818
e 58 163
e 58 600
e 59 778
e 59 665
e 59 457
e 60 373
e 60 855
e 60 728
e 61 806
e 61 920
e 61 807
e 62 379
e 62 566
e 62 185
e 62 310
e 62 108
e 62 779
e 62 959
e 62 878
e 63 601
e 63 274
e 63 456
e 63 874
e 63 452
e 64 811
e 64 719
e 64 809
e 64 499
e 64 982
e 64 75
e 64 782
e 64 922
e 64 397
e 65 381
e 65 400
e 65 813
e 66 895
e 66 746
e 66 662
e 67 984
e 67 286
e 67 614
e 67 408
e 68 799
e 68 635
e 68 361
e 68 315
e 69 125
e 69 718
e 69 515
e 69 236
e 69 704
e 70 390
e 70 620
e 70 822
e 71 877
e 71 436
e 71 971
e 72 627
e 72 156
e 72 325
e 72 886
e 72 580
e 72 100
e 74 840
e 74 391
e 74 397
e 75 814
e 75 76
e 75 700
e 76 367
e 76 906
e 76 427
e 76 410
e 77 287
e 77 185
e 77 466
e 77 168
e 78 765
e 78 570
e 78 123
e 78 912
e 78 171
e 79 750
e 79 958
e 80 310
e 80 185
e 80 415
e 80 594
e 80 797
e 80 853
e 81 477
e 81 753
e 81 729
e 81 403
e 84 807
e 84 819
e 84 645
e 84 132
e 84 384
e 85 793
e 85 879
e 85 490
e 85 497
e 85 352
e 85 661
e 85 445
e 87 923
e 87 668
e 87 885
e 87 246
e 87 734
e 89 894
e 89 922
e 89 168
e 90 428
e 90 432
e 90 875
e 90 757
e 90 535
e 91 517
e 91 941
e 91 173
e 92 898
e 92 561
e 92 755
e 93 544
e 93 884
e 93 650
e 93 216
e 94 350
e 94 853
e 94 663
e 95 590
e 95 856
e 95 301
e 95 723
e 95 978
e 96 723
e 96 944
e 96 992
e 97 598
e 97 187
e 97 265
e 97 637
e 97 422
e 97 923
e 100 498
e 100 895
e 101 821
e 101 291
e 101 377
e 101 504
e 101 645
e 102 123
e 102 320
e 102 819
e 102 576
e 102 877
e 102 379
e 104 896
e 104 477
e 104 240
e 105 237
e 105 630
e 105 844
e 105 289
e 105 489
e 106 842
e 106 902
e 106 501
e 106 807
e 106 960
e 106 291
e 106 264
e 107 431
e 107 578
e 107 386
e 107 643
e 107 493
e 108 454
e 108 183
e 109 177
e 109 881
e 109 510
e 109 870
e 109 216
e 109 234
e 109 463
e 109 178
e 109 703
e 110 142
e 110 813
e 110 720
e 111 429
e 111 798
e 111 357
e 111 296
e 111 463
e 112 757
e 112 746
e 112 852
e 112 188
e 112 382
e 114 278
e 114 856
e 114 162
e 114 581
e 114 431
e 114 171
e 115 290
e 115 639
e 115 919
e 115 719
e 115 117
e 116 126
e 116 785
e 116 713
e 116 408
e 117 874
e 117 699
e 117 287
e 119 210
e 119 309
e 119 647
e 119 759
e 119 455
e 121 420
e 121 656
e 121 123
e 121 602
e 121 657
e 123 693
e 123 670
e 123 306
e 123 954
e 123 649
e 123 213
e 123 738
e 124 953
e 124 364
e 124 487
e 124 703
e 124 941
e 124 627
e 125 499
e 125 470
e 125 129
e 125 910
e 125 162
e 126 982
e 126 432
e 126 335
e 126 875
e 126 195
e 126 620
e 126 636
e 127 132
e 127 905
e 127 145
e 127 453
e 128 672
e 128 840
e 128 192
e 129 999
e 129 490
e 130 852
e 130 722
e 130 337
e 131 708
e 131 312
e 131 734
e 131 516
e 131 769
e 132 432
e 132 244
e 133 509
e 133 135
e 135 477
e 135 717
e 135 350
e 137 425
e 137 214
e 137 618
e 137 199
e 137 474
e 140 774
e 140 649
e 140 553
e 140 339
e 142 828
e 142 497
e 142 252
e 142 598
e 144 555
e 144 893
e 144 333
e 144 720
e 144 846
e 144 525
e 145 426
e 145 422
e 146 390
e 146 252
e 146 790
e 147 343
e 147 932
e 148 684
e 148 930
e 148 326
e 148 863
e 148 931
e 148 947
e 148 749
e 149 425
e 149 193
e 149 331
e 149 489
e 152 481
e 152 960
e 152 681
e 152 252
e 153 210
e 153 438
e 153 560
e 153 974
e 153 490
e 153 590
e 154 975
e 154 335
e 154 981
e 156 427
e 156 712
e 157 992
e 157 170
e 157 943
e 157 609
e 157 718
e 157 996
e 157 427
e 158 262
e 158 862
e 158 316
e 159 428
e 159 313
e 159 296
e 160 994
e 160 218
e 160 412
e 160 187
e 160 690
e 162 692
e 162 350
e 163 946
e 163 735
e 163 397
e 166 626
e 166 908
e 166 364
e 166 188
e 166 851
e 166 649
e 166 397
e 166 857
e 168 199
e 170 199
e 170 315
e 170 758
e 170 436
e 171 678
e 171 714
e 171 813
e 171 534
e 173 899
e 173 303
e 173 361
e 175 876
e 175 669
e 175 570
e 175 556
e 175 767
e 175 717
e 176 251
e 176 744
e 176 341
e 177 581
e 177 304
e 177 233
e 177 554
e 177 975
e 178 975
e 178 275
e 180 236
e 180 214
e 180 579
e 180 420
e 180 664
e 181 352
e 181 941
e 181 650
e 181 903
e 181 757
e 181 959
e 183 705
e 183 592
e 185 750
e 185 474
e 185 544
e 185 906
e 186 962
e 186 639
e 186 381
e 186 784
e 186 572
e 186 659
e 186 961
e 187 905
e 187 208
e 188 271
e 188 779
e 188 750
e 188 601
e 189 722
e 189 248
e 189 252
e 192 715
e 192 356
e 192 271
e 192 783
e 193 778
e 193 600
e 193 282
e 193 802
e 194 334
e 194 839
e 194 917
e 194 948
e 194 749
e 195 468
e 195 809
e 195 994
e 196 457
e 196 256
e 196 714
e 196 688
e 196 352
e 196 280
e 197 555
e 197 434
e 197 618
e 197 519
e 199 996
e 199 473
e 199 499
e 199 374
e 201 572
e 201 471
e 201 467
e 201 813
e 206 557
e 206 474
e 206 487
e 208 819
e 208 894
e 210 886
e 210 904
e 211 985
e 211 723
e 211 515
e 213 462
e 213 240
e 214 756
e 214 958
e 214 598
e 214 571
e 215 495
e 215 513
e 215 794
e 215 288
e 215 669
e 216 801
e 216 629
e 216 542
e 216 480
e 216 955
e 216 252
e 217 809
e 217 268
e 217 505
e 217 764
e 218 986
e 218 749
e 218 534
e 218 841
e 218 869
e 219 222
e 219 492
e 219 693
e 219 690
e 220 527
e 220 868
e 220 666
e 220 473
e 221 276
e 221 961
e 221 596
e 222 403
e 222 496
e 222 328
e 222 491
e 222 913
e 222 718
e 223 559
e 223 802
e 223 555
e 223 767
e 223 603
e 223 992
e 224 477
e 224 834
e 224 725
e 224 366
e 224 271
e 224 805
e 226 277
e 226 906
e 226 691
e 227 307
e 227 661
e 227 458
e 228 529
e 228 463
e 228 247
e 228 583
e 229 481
e 229 478
e 229 878
e 229 585
e 229 670
e 229 753
e 230 461
e 230 327
e 230 476
e 233 710
e 233 313
e 234 737
e 234 895
e 234 411
e 234 728
e 234 751
e 234 235
e 235 252
e 235 774
e 237 952
e 237 373
e 240 654
e 240 565
e 241 416
e 241 914
e 241 906
e 241 700
e 243 309
e 243 501
e 243 985
e 243 661
e 243 903
e 244 475
e 244 980
e 244 486
e 244 386
e 244 617
e 245 371
e 245 807
e 245 808
e 246 764
e 246 541
e 246 455
e 246 939
e 246 945
e 247 268
e 247 968
e 247 711
e 247 617
e 248 548
e 248 871
e 249 592
e 249 429
e 249 401
e 251 685
e 251 582
e 251 944
e 252 722
e 252 521
e 252 744
e 252 328
e 252 453
e 252 596
e 252 445
e 254 391
e 254 529
e 254 691
e 255 935
e 255 668
e 255 921
e 256 616
e 256 477
e 257 322
e 257 323
e 257 910
e 257 483
e 257 260
e 259 592
e 259 511
e 259 392
e 259 431
e 260 562
e 260 628
e 262 620
e 262 515
e 262 683
e 263 323
e 263 886
e 263 774
e 263 959
e 263 600
e 264 663
e 264 346
e 265 635
e 265 594
e 266 653
e 266 328
e 266 272
e 266 657
e 266 408
e 267 486
e 267 658
e 267 752
e 267 309
e 268 448
e 271 934
e 271 962
e 271 358
e 272 524
e 272 463
e 273 750
e 273 371
e 273 527
e 273 825
e 273 907
e 274 695
e 274 592
e 274 640
e 275 863
e 275 853
e 275 408
e 275 300
e 275 807
e 276 294
e 276 686
e 276 882
e 276 909
e 276 881
e 277 429
e 277 664
e 277 416
e 278 771
e 278 835
e 278 968
e 278 803
e 278 813
e 278 301
e 280 930
e 280 971
e 282 734
e 282 608
e 282 581
e 283 499
e 283 939
e 283 582
e 283 755
e 283 569
e 283 286
e 283 872
e 284 525
e 284 568
e 284 519
e 284 653
e 284 437
e 285 684
e 285 755
e 285 982
e 285 312
e 285 495
e 285 712
e 285 750
e 286 364
e 286 592
e 287 760
e 287 594
e 287 623
e 287 599
e 288 756
e 288 914
e 288 841
e 289 658
e 289 592
e 289 876
e 289 919
e 289 781
e 289 458
e 289 310
e 289 420
e 290 704
e 290 648
e 290 801
e 290 752
e 291 812
e 293 718
e 294 647
e 294 765
e 294 723
e 296 298
e 296 723
e 298 573
e 298 931
e 298 769
e 298 668
e 299 578
e 299 401
e 299 714
e 299 668
e 300 580
e 300 897
e 300 666
e 300 902
e 301 838
e 301 851
e 301 892
e 301 974
e 301 589
e 301 438
e 302 384
e 302 822
e 302 962
e 302 526
e 302 919
e 303 848
e 303 598
e 304 521
e 304 384
e 305 535
e 305 932
e 305 589
e 305 941
e 306 653
e 306 906
e 307 821
e 307 805
e 307 557
e 308 421
e 308 391
e 309 332
e 309 769
e 309 580
e 309 667
e 309 341
e 309 941
e 310 523
e 310 960
e 311 874
e 311 498
e 311 940
e 311 904
e 311 843
e 312 491
e 313 401
e 314 581
e 314 849
e 314 766
e 314 432
e 315 690
e 315 598
e 315 783
e 315 467
e 316 841
e 316 649
e 316 941
e 316 765
e 316 616
e 316 490
e 320 473
e 320 420
e 320 986
e 320 864
e 320 514
e 321 929
e 321 602
e 321 451
e 322 858
e 322 993
e 323 952
e 325 495
e 325 636
e 326 699
e 326 624
e 327 466
e 327 896
e 327 790
e 327 377
e 327 640
e 327 907
e 328 493
e 328 802
e 331 650
e 331 535
e 332 427
e 332 551
e 332 570
e 333 880
e 333 654
e 333 508
e 334 640
e 334 469
e 335 908
e 335 614
e 335 521
e 335 794
e 337 888
e 338 662
e 338 747
e 338 991
e 339 343
e 339 367
e 340 348
e 340 462
e 340 546
e 340 569
e 341 630
e 341 528
e 343 636
e 343 898
e 346 559
e 346 570
e 348 364
e 348 369
e 348 747
e 348 557
e 348 992
e 350 871
e 350 445
e 352 912
e 356 955
e 356 893
e 356 857
e 357 419
e 357 449
e 357 512
e 357 867
e 357 363
e 358 381
e 358 593
e 358 749
e 358 452
e 361 469
e 361 586
e 361 637
e 361 470
e 361 493
e 361 928
e 362 424
e 362 377
e 362 429
e 362 569
e 362 991
e 363 962
e 363 480
e 363 810
e 364 981
e 365 613
e 365 546
e 365 603
e 365 478
e 365 426
e 366 601
e 366 873
e 367 428
e 367 825
e 367 687
e 368 452
e 368 599
e 368 396
e 368 862
e 369 780
e 369 766
e 371 596
e 371 764
e 372 710
e 372 568
e 372 735
e 372 748
e 372 373
e 372 742
e 372 653
e 373 557
e 373 754
e 373 730
e 373 893
e 374 436
e 374 797
e 374 659
e 374 578
e 374 563
e 375 553
e 375 400
e 375 379
e 375 515
e 376 723
e 376 877
e 376 853
e 376 521
e 376 453
e 378 543
e 378 741
e 378 454
e 379 896
e 379 554
e 380 842
e 380 917
e 380 461
e 381 384
e 381 879
e 381 819
e 382 839
e 382 416
e 384 598
e 384 602
e 384 684
e 384 732
e 384 695
e 386 504
e 386 614
e 386 405
e 390 412
e 390 941
e 390 699
e 390 751
e 391 540
e 391 840
e 391 868
e 391 928
e 392 819
e 392 664
e 392 482
e 392 953
e 394 614
e 394 766
e 394 515
e 394 926
e 394 791
e 394 570
e 394 778
e 394 654
e 394 751
e 396 626
e 396 834
e 397 883
e 399 596
e 399 572
e 399 524
e 400 932
e 400 433
e 400 781
e 400 445
e 400 498
e 400 738
e 400 616
e 401 624
e 401 588
e 402 548
e 402 684
e 402 445
e 402 597
e 403 566
e 403 960
e 403 589
e 403 713
e 403 482
e 403 976
e 404 905
e 404 750
e 404 807
e 404 428
e 404 780
e 404 757
e 405 454
e 405 884
e 405 692
e 408 993
e 408 529
e 408 537
e 410 800
e 410 534
e 410 835
e 410 985
e 411 578
e 411 419
e 411 897
e 412 636
e 412 884
e 415 570
e 415 509
e 416 917
e 416 672
e 416 561
e 416 634
e 419 703
e 419 943
e 421 832
e 421 664
e 421 437
e 421 450
e 421 475
e 421 662
e 422 613
e 422 547
e 422 591
e 422 829
e 424 820
e 424 822
e 424 463
e 424 629
e 424 656
e 424 695
e 424 660
e 424 509
e 425 621
e 425 564
e 427 952
e 427 993
e 428 994
e 428 986
e 428 610
e 428 857
e 429 620
e 429 477
e 429 580
e 431 929
e 431 703
e 431 649
e 431 839
e 431 575
e 432 593
e 433 495
e 433 742
e 434 897
e 434 717
e 434 505
e 435 828
e 435 651
e 435 623
e 435 944
e 436 544
e 437 692
e 438 927
e 439 939
e 439 792
e 439 581
e 440 507
e 440 800
e 440 557
e 445 725
e 445 783
e 445 513
e 448 809
e 448 449
e 449 734
e 450 976
e 450 507
e 450 579
e 450 715
e 451 629
e 451 888
e 451 878
e 452 648
e 452 739
e 452 667
e 453 455
e 453 814
e 453 469
e 454 662
e 455 540
e 455 856
e 456 907
e 456 569
e 457 693
e 457 705
e 457 757
e 457 487
e 457 912
e 458 696
e 458 802
e 459 649
e 459 521
e 460 879
e 460 572
e 460 806
e 461 828
e 462 629
e 462 615
e 462 549
e 463 525
e 463 708
e 463 700
e 466 628
e 467 819
e 467 964
e 468 814
e 468 717
e 468 935
e 470 643
e 471 832
e 471 976
e 471 495
e 473 604
e 474 978
e 474 515
e 474 924
e 475 602
e 475 870
e 476 683
e 477 785
e 477 649
e 477 620
e 477 862
e 478 780
e 480 934
e 480 690
e 481 890
e 481 643
e 481 624
e 482 559
e 482 754
e 483 603
e 483 832
e 483 755
e 486 646
e 486 509
e 486 672
e 486 884
e 487 684
e 487 617
e 487 957
e 489 978
e 490 788
e 491 512
e 491 843
e 492 874
e 492 842
e 493 834
e 493 526
e 493 610
e 495 603
e 495 906
e 496 621
e 496 672
e 496 825
e 497 870
e 497 893
e 498 807
e 498 959
e 499 516
e 500 879
e 500 884
e 500 834
e 500 832
e 500 913
e 501 696
e 501 639
e 501 601
e 502 512
e 502 907
e 502 524
e 502 548
e 504 867
e 504 526
e 507 699
e 508 549
e 508 676
e 509 899
e 510 521
e 510 935
e 511 856
e 511 801
e 511 747
e 513 886
e 513 958
e 513 774
e 513 651
e 513 946
e 514 820
e 514 603
e 514 909
e 514 890
e 515 788
e 516 871
e 516 708
e 517 764
e 517 980
e 517 576
e 517 906
e 517 811
e 519 788
e 519 737
e 519 863
e 519 760
e 520 554
e 520 635
e 521 958
e 521 856
e 521 522
e 522 876
e 522 691
e 522 971
e 522 544
e 522 678
e 523 588
e 523 711
e 523 639
e 523 547
e 525 982
e 526 834
e 527 663
e 527 993
e 528 588
e 528 880
e 528 907
e 529 597
e 532 593
e 532 940
e 532 961
e 532 587
e 533 590
e 533 691
e 533 675
e 533 747
e 534 929
e 534 598
e 535 879
e 537 668
e 537 733
e 540 810
e 540 772
e 540 551
e 540 867
e 540 808
e 541 728
e 541 898
e 542 892
e 542 724
e 542 778
e 542 897
e 543 931
e 543 897
e 543 937
e 544 801
e 544 906
e 544 790
e 544 737
e 546 907
e 546 547
e 547 720
e 548 610
e 549 733
e 549 575
e 549 961
e 551 783
e 551 822
e 553 657
e 554 776
e 554 906
e 554 713
e 554 969
e 555 699
e 555 929
e 555 723
e 556 805
e 556 565
e 556 936
e 557 956
e 557 792
e 557 911
e 559 662
e 559 573
e 560 579
e 560 618
e 560 774
e 561 606
e 561 729
e 562 569
e 562 869
e 562 592
e 562 829
e 563 567
e 563 708
e 564 984
e 564 798
e 565 618
e 565 868
e 566 568
e 567 986
e 567 930
e 568 799
e 568 996
e 568 898
e 570 788
e 571 849
e 571 656
e 571 583
e 571 717
e 571 597
e 571 873
e 572 784
e 572 993
e 572 743
e 573 659
e 575 928
e 575 730
e 576 748
e 576 799
e 578 945
e 578 905
e 578 785
e 578 921
e 578 933
e 578 635
e 579 917
e 579 871
e 579 878
e 580 950
e 580 710
e 581 852
e 581 750
e 582 587
e 582 874
e 583 724
e 584 849
e 584 667
e 584 635
e 585 710
e 585 705
e 586 591
e 586 733
e 586 840
e 587 832
e 588 598
e 588 655
e 589 610
e 589 602
e 589 848
e 590 989
e 591 968
e 591 849
e 591 712
e 592 730
e 593 794
e 594 964
e 596 659
e 597 649
e 598 692
e 599 999
e 599 616
e 600 623
e 600 711
e 600 783
e 601 703
e 602 791
e 603 902
e 603 950
e 603 914
e 603 885
e 604 985
e 604 712
e 606 921
e 606 961
e 606 829
e 608 765
e 608 935
e 609 699
e 609 863
e 611 842
e 611 639
e 611 781
e 613 782
e 613 675
e 613 759
e 613 920
e 614 930
e 615 908
e 615 844
e 616 877
e 617 880
e 618 798
e 620 799
e 620 825
e 621 717
e 621 679
e 621 809
e 621 818
e 621 969
e 621 699
e 623 772
e 624 655
e 626 741
e 626 936
e 626 957
e 627 733
e 627 754
e 627 741
e 628 656
e 629 794
e 630 892
e 632 704
e 632 713
e 634 930
e 634 882
e 634 646
e 636 924
e 636 855
e 636 746
e 637 746
e 637 874
e 639 751
e 645 947
e 646 910
e 646 939
e 647 989
e 648 715
e 649 783
e 651 734
e 651 799
e 651 969
e 653 801
e 653 932
e 653 958
e 654 933
e 654 781
e 655 676
e 655 783
e 656 900
e 657 812
e 658 944
e 659 927
e 660 696
e 660 779
e 660 805
e 661 748
e 661 954
e 662 843
e 663 974
e 665 989
e 666 967
e 668 711
e 668 904
e 668 870
e 669 893
e 670 924
e 670 712
e 670 839
e 672 708
e 675 883
e 675 872
e 676 784
e 678 834
e 679 835
e 679 693
e 679 728
e 681 905
e 681 746
e 683 908
e 684 907
e 685 899
e 685 806
e 685 928
e 685 838
e 686 894
e 687 840
e 687 906
e 688 999
e 688 968
e 690 810
e 690 771
e 690 805
e 693 873
e 694 957
e 694 873
e 700 739
e 700 758
e 703 971
e 704 881
e 704 990
e 704 849
e 705 913
e 705 760
e 705 756
e 705 810
e 708 992
e 712 912
e 718 871
e 718 764
e 718 810
e 718 937
e 719 832
e 719 959
e 719 784
e 720 835
e 720 876
e 720 778
e 720 926
e 724 875
e 732 899
e 732 765
e 733 881
e 734 739
e 734 798
e 735 986
e 737 926
e 738 961
e 739 873
e 741 855
e 742 908
e 742 820
e 743 928
e 743 852
e 743 851
e 746 904
e 747 922
e 748 964
e 750 874
e 753 853
e 754 999
e 754 846
e 754 839
e 755 781
e 756 791
e 756 871
e 757 809
e 758 931
e 758 950
e 758 848
e 759 868
e 760 853
e 760 828
e 760 945
e 760 811
e 764 807
e 764 908
e 765 939
e 765 885
e 766 812
e 767 778
e 767 783
e 769 959
e 771 967
e 772 846
e 774 896
e 776 781
e 776 853
e 776 829
e 778 994
e 778 834
e 779 928
e 779 906
e 780 943
e 781 793
e 781 986
e 782 978
e 784 928
e 785 930
e 788 813
e 790 924
e 791 808
e 791 803
e 791 894
e 792 957
e 793 897
e 797 825
e 800 953
e 810 846
e 812 946
e 812 974
e 813 991
e 813 969
e 814 892
e 818 893
e 819 992
e 821 864
e 821 933
e 822 911
e 832 873
e 834 886
e 835 883
e 838 992
e 839 981
e 842 908
e 844 899
e 848 957
e 848 923
e 858 864
e 858 981
e 863 936
e 868 982
e 869 958
e 870 908
e 870 960
e 870 874
e 873 883
e 874 944
e 875 934
e 875 897
e 877 958
e 878 936
e 879 881
e 882 937
e 888 971
e 890 984
e 893 919
e 895 903
e 898 961
e 898 974
e 899 911
e 900 939
e 902 920
e 902 980
e 902 967
e 902 909
e 903 927
e 904 923
e 905 948
e 907 990
e 909 935
e 910 955
e 910 969
e 911 940
e 923 996
e 926 948
e 929 940
e 934 948
e 934 945
e 937 956
e 939 940
e 943 950
e 945 946
e 947 986
e 954 990
e 980 991
